\ Model QCP
\ LP format - for model browsing. Use MPS format to capture full model detail.
Minimize
  z + y
Subject To
 Cut_0: z + [ ] >= 1200
 Cut_1: z + [ 6.666666666666667 y ^2 ] >= 2866.666666666667
 Cut_2: z + [ 4.918032786885246 y ^2 ] >= 2523.934426229508
 Cut_3: z + [ 4.615384615384615 y ^2 ] >= 2446.153846153846
 Cut_4: z + [ ] >= 1200
 Cut_5: z + [ ] >= 1200
 Cut_6: z + [ ] >= 1200
 Cut_7: z + [ ] >= 1200
 Cut_8: z + [ ] >= 1200
 Cut_9: z + [ ] >= 1200
Bounds
 1200 <= z <= 1680
 13.34166406412633 <= y <= 16.43167672515498
End
